
Gurobi 9.0.1 (linux64) logging started Thu Apr 30 05:58:00 2020

Gurobi Optimizer version 9.0.1 build v9.0.1rc0 (linux64)
Optimize a model with 2138 rows, 2120 columns and 19920 nonzeros
Model fingerprint: 0x0073f1c6
Variable types: 0 continuous, 2120 integer (2106 binary)
Coefficient statistics:
  Matrix range     [1e+00, 7e+00]
  Objective range  [2e+00, 1e+02]
  Bounds range     [1e+00, 1e+00]
  RHS range        [1e+00, 1e+00]

User MIP start produced solution with objective 590 (0.00s)
Loaded user MIP start with objective 590

Presolve removed 800 rows and 816 columns
Presolve time: 0.12s
Presolved: 1338 rows, 1304 columns, 14312 nonzeros
Variable types: 0 continuous, 1304 integer (1292 binary)

Root relaxation: objective 3.652380e+02, 1041 iterations, 0.10 seconds

    Nodes    |    Current Node    |     Objective Bounds      |     Work
 Expl Unexpl |  Obj  Depth IntInf | Incumbent    BestBd   Gap | It/Node Time

     0     0  365.23805    0  370  590.00000  365.23805  38.1%     -    0s
     0     0  395.55926    0  374  590.00000  395.55926  33.0%     -    0s
     0     0  395.56623    0  373  590.00000  395.56623  33.0%     -    0s
     0     0  395.56629    0  373  590.00000  395.56629  33.0%     -    0s
     0     0  407.36035    0  369  590.00000  407.36035  31.0%     -    1s
     0     0  407.39490    0  364  590.00000  407.39490  31.0%     -    1s
     0     0  407.40551    0  373  590.00000  407.40551  30.9%     -    1s
     0     0  413.55987    0  406  590.00000  413.55987  29.9%     -    1s
     0     0  413.86960    0  396  590.00000  413.86960  29.9%     -    1s
     0     0  413.89465    0  397  590.00000  413.89465  29.8%     -    1s
     0     0  413.89938    0  400  590.00000  413.89938  29.8%     -    1s
     0     0  418.09461    0  404  590.00000  418.09461  29.1%     -    2s
     0     0  418.81333    0  407  590.00000  418.81333  29.0%     -    2s
     0     0  418.92299    0  413  590.00000  418.92299  29.0%     -    2s
     0     0  418.93147    0  414  590.00000  418.93147  29.0%     -    2s
     0     0  419.93065    0  410  590.00000  419.93065  28.8%     -    2s
     0     0  420.03161    0  404  590.00000  420.03161  28.8%     -    2s
     0     0  420.23673    0  415  590.00000  420.23673  28.8%     -    2s
     0     0  420.25244    0  416  590.00000  420.25244  28.8%     -    2s
     0     0  421.83510    0  407  590.00000  421.83510  28.5%     -    2s
     0     0  422.12918    0  408  590.00000  422.12918  28.5%     -    2s
     0     0  422.17473    0  403  590.00000  422.17473  28.4%     -    2s
     0     0  422.18625    0  411  590.00000  422.18625  28.4%     -    2s
     0     0  422.66049    0  401  590.00000  422.66049  28.4%     -    3s
     0     0  422.74800    0  413  590.00000  422.74800  28.3%     -    3s
     0     0  422.77555    0  418  590.00000  422.77555  28.3%     -    3s
     0     0  423.39881    0  418  590.00000  423.39881  28.2%     -    3s
     0     0  423.42637    0  418  590.00000  423.42637  28.2%     -    3s
     0     0  425.32965    0  401  590.00000  425.32965  27.9%     -    3s
     0     0  425.41913    0  415  590.00000  425.41913  27.9%     -    3s
     0     0  425.42624    0  419  590.00000  425.42624  27.9%     -    3s
     0     0  426.20470    0  405  590.00000  426.20470  27.8%     -    3s
     0     0  426.34093    0  421  590.00000  426.34093  27.7%     -    3s
     0     0  426.38479    0  427  590.00000  426.38479  27.7%     -    3s
     0     0  426.39128    0  429  590.00000  426.39128  27.7%     -    3s
     0     0  426.41043    0  417  590.00000  426.41043  27.7%     -    4s
     0     0  426.41043    0  417  590.00000  426.41043  27.7%     -    4s
     0     2  426.52605    0  417  590.00000  426.52605  27.7%     -    4s
     3     5  452.89784    2  304  590.00000  427.21485  27.6%   844    5s
    66    63  559.48217   39  216  590.00000  449.21288  23.9%   463   10s
   179   141  533.11431   15  207  590.00000  449.60540  23.8%   324   15s
   288   220  518.47101    7  162  590.00000  449.93999  23.7%   290   20s
H  300   226                     588.0000000  449.93999  23.5%   289   20s
H  354   259                     587.0000000  449.93999  23.3%   274   22s
H  376   220                     555.0000000  449.93999  18.9%   271   23s
H  382   209                     551.0000000  449.93999  18.3%   268   24s
   409   224  466.09465    6  314  551.00000  450.94975  18.2%   255   25s
   513   251  509.85527   21  358  551.00000  453.20746  17.7%   232   30s
   529   262  538.82992   27  421  551.00000  453.20746  17.7%   225   36s
   534   267  453.20746   17  407  551.00000  453.20746  17.7%   239   40s
   551   279  532.60283   25  279  551.00000  453.20746  17.7%   255   45s
   664   313  526.64739   38  127  551.00000  453.20746  17.7%   253   50s
   786   320  538.36622   31  244  551.00000  458.67073  16.8%   252   55s
   940   315  462.22396   21  337  551.00000  461.08824  16.3%   240   60s
  1021   335  513.85739   21  250  551.00000  461.61003  16.2%   243   65s
* 1129   322              35     542.0000000  464.27949  14.3%   236   69s
H 1131   295                     540.0000000  464.27949  14.0%   235   69s
  1151   296  491.70374   25  283  540.00000  465.71814  13.8%   235   70s
* 1228   280              41     537.0000000  466.08314  13.2%   234   73s
H 1241   167                     514.0000000  466.17318  9.30%   233   74s
  1266   166     cutoff   29       514.00000  466.56797  9.23%   234   75s
  1391   180  504.76523   28  226  514.00000  468.97767  8.76%   229   80s
  1554   203  496.40001   26  235  514.00000  474.36352  7.71%   224   85s
  1715   194     cutoff   27       514.00000  480.58690  6.50%   219   90s
  1834   190  495.02855   32  242  514.00000  483.44070  5.95%   217   95s
  2047   181  489.86147   29  284  514.00000  487.72525  5.11%   210  100s
  2227   150  502.02151   28  259  514.00000  492.94236  4.10%   207  105s
  2493    43     cutoff   27       514.00000  506.94474  1.37%   198  110s

Cutting planes:
  MIR: 24
  Flow cover: 51
  Inf proof: 14
  Zero half: 72
  RLT: 360

Explored 2736 nodes (506696 simplex iterations) in 111.10 seconds
Thread count was 1 (of 40 available processors)

Solution count 9: 514 537 540 ... 590

Optimal solution found (tolerance 1.00e-04)
Best objective 5.140000000000e+02, best bound 5.140000000000e+02, gap 0.0000%

User-callback calls 17452, time in user-callback 0.01 sec
